Cars = 1..200;
Options = 1..5;
Classes = 1..19;
sequenceMinCapacity = [0, 0, 0, 0, 0];
sequenceMaxCapacity = [1, 2, 1, 2, 1];
sequenceSize = [2, 3, 3, 5, 5];
numOrdered = [7, 56, 2, 2, 33, 39, 3, 1, 7, 1, 4, 1, 1, 24, 8, 7, 2, 1, 1];
classHasOption = [|false,  true,  true, false, false
                  |false, false, false,  true, false
                  |false,  true, false,  true,  true
                  | true,  true,  true, false, false
                  |false, false,  true, false, false
                  | true, false, false, false, false
                  | true, false, false, false,  true
                  | true,  true, false, false,  true
                  | true,  true, false, false, false
                  |false, false,  true,  true, false
                  | true, false,  true, false, false
                  | true, false,  true, false,  true
                  |false,  true,  true,  true,  true
                  |false,  true, false, false, false
                  |false,  true, false,  true, false
                  |false, false, false, false,  true
                  |false,  true,  true,  true, false
                  | true, false, false,  true, false
                  |false, false, false,  true,  true|];
optionOrdering = [3, 4, 1, 5, 2];
